c Optimised CNF encoding for 4x4 Sudoku
c Source: sudoku_4x4_03.txt
c Variables: 22  Clauses: 98
c SIZE 4
c MAP 1 1 1 2
c MAP 2 1 1 4
c MAP 3 1 2 2
c MAP 4 1 4 1
c MAP 5 1 4 4
c MAP 6 2 1 2
c MAP 7 2 1 3
c MAP 8 2 1 4
c MAP 9 2 3 2
c MAP 10 2 3 4
c MAP 11 2 4 4
c MAP 12 3 1 1
c MAP 13 3 1 3
c MAP 14 3 2 3
c MAP 15 3 3 1
c MAP 16 3 3 4
c MAP 17 4 1 1
c MAP 18 4 1 2
c MAP 19 4 1 3
c MAP 20 4 3 1
c MAP 21 4 4 1
c MAP 22 4 4 3
c FIXED 1 3 3
c FIXED 2 2 1
c FIXED 3 4 2
c FIXED 4 2 4
p cnf 22 98
1 2 0
3 0
4 5 0
6 7 8 0
9 10 0
11 0
12 13 0
14 0
15 16 0
17 18 19 0
20 0
21 22 0
-1 -2 0
-4 -5 0
-6 -7 0
-6 -8 0
-7 -8 0
-9 -10 0
-12 -13 0
-15 -16 0
-17 -18 0
-17 -19 0
-18 -19 0
-21 -22 0
4 0
1 3 0
2 5 0
6 9 0
7 0
8 10 11 0
12 15 0
13 14 0
16 0
17 20 21 0
18 0
19 22 0
-1 -3 0
-2 -5 0
-6 -9 0
-8 -10 0
-8 -11 0
-10 -11 0
-12 -15 0
-13 -14 0
-17 -20 0
-17 -21 0
-20 -21 0
-19 -22 0
12 17 0
1 6 18 0
7 13 19 0
2 8 0
3 0
14 0
15 20 0
9 0
10 16 0
4 21 0
22 0
5 11 0
-12 -17 0
-1 -6 0
-1 -18 0
-6 -18 0
-7 -13 0
-7 -19 0
-13 -19 0
-2 -8 0
-15 -20 0
-10 -16 0
-4 -21 0
-5 -11 0
1 3 6 0
7 0
2 8 0
4 0
9 0
5 10 11 0
12 17 0
18 0
13 14 19 0
15 20 21 0
22 0
16 0
-1 -3 0
-1 -6 0
-3 -6 0
-2 -8 0
-5 -10 0
-5 -11 0
-10 -11 0
-12 -17 0
-13 -14 0
-13 -19 0
-14 -19 0
-15 -20 0
-15 -21 0
-20 -21 0
